language ESSENCE' 1.0
$ Minion SolverNodes: 243292
$ Minion SolverTotalTime: 138.491
$ Minion SolverTimeOut: 0
$ Savile Row TotalTime: 64.858
letting numberOfTurningPoints be 20
letting states be [[[0, 0, 1, 1, 0, 0, 0], 
[1, 0, 0, 0, 0, 1, 0], 
[0, 0, 1, 0, 0, 0, 0], 
[0, 0, 0, 0, 1, 0, 0], 
[0, 0, 0, 0, 0, 0, 0], 
[0, 0, 0, 1, 0, 0, 0], 
[1, 1, 0, 0, 0, 0, 0]], 
[[0, 0, 1, 1, 0, 0, 0], 
[1, 0, 0, 0, 0, 1, 0], 
[1, 0, 1, 0, 0, 0, 0], 
[1, 0, 0, 0, 1, 0, 0], 
[1, 0, 0, 0, 0, 0, 0], 
[1, 0, 0, 1, 0, 0, 0], 
[1, 1, 0, 0, 0, 0, 0]], 
[[0, 0, 1, 1, 0, 0, 0], 
[1, 0, 0, 0, 0, 1, 0], 
[1, 1, 1, 0, 0, 0, 0], 
[1, 0, 0, 0, 1, 0, 0], 
[1, 0, 0, 0, 0, 0, 0], 
[1, 0, 0, 1, 0, 0, 0], 
[1, 1, 0, 0, 0, 0, 0]], 
[[0, 0, 1, 1, 0, 0, 0], 
[1, 0, 0, 0, 0, 1, 0], 
[1, 1, 1, 0, 0, 0, 0], 
[1, 1, 0, 0, 1, 0, 0], 
[1, 1, 0, 0, 0, 0, 0], 
[1, 1, 0, 1, 0, 0, 0], 
[1, 1, 0, 0, 0, 0, 0]], 
[[0, 0, 1, 1, 0, 0, 0], 
[1, 0, 0, 0, 0, 1, 0], 
[1, 1, 1, 0, 0, 0, 0], 
[1, 1, 0, 0, 1, 0, 0], 
[1, 1, 0, 0, 0, 0, 0], 
[1, 1, 1, 1, 0, 0, 0], 
[1, 1, 0, 0, 0, 0, 0]], 
[[0, 0, 1, 1, 0, 0, 0], 
[1, 0, 0, 0, 0, 1, 0], 
[1, 1, 1, 0, 0, 0, 0], 
[1, 1, 0, 0, 1, 0, 0], 
[1, 1, 0, 0, 0, 0, 0], 
[1, 1, 1, 1, 0, 0, 0], 
[1, 1, 1, 0, 0, 0, 0]], 
[[0, 0, 1, 1, 0, 0, 0], 
[1, 0, 0, 0, 0, 1, 0], 
[1, 1, 1, 0, 0, 0, 0], 
[1, 1, 0, 0, 1, 0, 0], 
[1, 1, 0, 0, 0, 0, 0], 
[1, 1, 1, 1, 0, 0, 0], 
[1, 1, 1, 1, 1, 1, 1]], 
[[0, 0, 1, 1, 0, 0, 1], 
[1, 0, 0, 0, 0, 1, 1], 
[1, 1, 1, 0, 0, 0, 1], 
[1, 1, 0, 0, 1, 0, 1], 
[1, 1, 0, 0, 0, 0, 1], 
[1, 1, 1, 1, 0, 0, 1], 
[1, 1, 1, 1, 1, 1, 1]], 
[[0, 0, 1, 1, 1, 1, 1], 
[1, 0, 0, 0, 0, 1, 1], 
[1, 1, 1, 0, 0, 0, 1], 
[1, 1, 0, 0, 1, 0, 1], 
[1, 1, 0, 0, 0, 0, 1], 
[1, 1, 1, 1, 0, 0, 1], 
[1, 1, 1, 1, 1, 1, 1]], 
[[0, 0, 1, 1, 1, 1, 1], 
[1, 0, 0, 0, 1, 1, 1], 
[1, 1, 1, 0, 1, 0, 1], 
[1, 1, 0, 0, 1, 0, 1], 
[1, 1, 0, 0, 0, 0, 1], 
[1, 1, 1, 1, 0, 0, 1], 
[1, 1, 1, 1, 1, 1, 1]], 
[[0, 0, 1, 1, 1, 1, 1], 
[1, 0, 0, 0, 1, 1, 1], 
[1, 1, 1, 0, 1, 1, 1], 
[1, 1, 0, 0, 1, 0, 1], 
[1, 1, 0, 0, 0, 0, 1], 
[1, 1, 1, 1, 0, 0, 1], 
[1, 1, 1, 1, 1, 1, 1]], 
[[0, 0, 1, 1, 1, 1, 1], 
[1, 0, 0, 0, 1, 1, 1], 
[1, 1, 1, 0, 1, 1, 1], 
[1, 1, 0, 0, 1, 1, 1], 
[1, 1, 0, 0, 0, 1, 1], 
[1, 1, 1, 1, 0, 1, 1], 
[1, 1, 1, 1, 1, 1, 1]], 
[[0, 0, 1, 1, 1, 1, 1], 
[1, 0, 0, 0, 1, 1, 1], 
[1, 1, 1, 0, 1, 1, 1], 
[1, 1, 0, 0, 1, 1, 1], 
[1, 1, 0, 0, 0, 1, 1], 
[1, 1, 1, 1, 1, 1, 1], 
[1, 1, 1, 1, 1, 1, 1]], 
[[0, 0, 1, 1, 1, 1, 1], 
[1, 0, 0, 0, 1, 1, 1], 
[1, 1, 1, 0, 1, 1, 1], 
[1, 1, 0, 0, 1, 1, 1], 
[1, 1, 0, 0, 1, 1, 1], 
[1, 1, 1, 1, 1, 1, 1], 
[1, 1, 1, 1, 1, 1, 1]], 
[[0, 0, 1, 1, 1, 1, 1], 
[1, 0, 0, 0, 1, 1, 1], 
[1, 1, 1, 0, 1, 1, 1], 
[1, 1, 0, 0, 1, 1, 1], 
[1, 1, 1, 1, 1, 1, 1], 
[1, 1, 1, 1, 1, 1, 1], 
[1, 1, 1, 1, 1, 1, 1]], 
[[0, 0, 1, 1, 1, 1, 1], 
[1, 0, 0, 0, 1, 1, 1], 
[1, 1, 1, 0, 1, 1, 1], 
[1, 1, 1, 0, 1, 1, 1], 
[1, 1, 1, 1, 1, 1, 1], 
[1, 1, 1, 1, 1, 1, 1], 
[1, 1, 1, 1, 1, 1, 1]], 
[[0, 0, 1, 1, 1, 1, 1], 
[1, 0, 0, 0, 1, 1, 1], 
[1, 1, 1, 0, 1, 1, 1], 
[1, 1, 1, 1, 1, 1, 1], 
[1, 1, 1, 1, 1, 1, 1], 
[1, 1, 1, 1, 1, 1, 1], 
[1, 1, 1, 1, 1, 1, 1]], 
[[0, 0, 1, 1, 1, 1, 1], 
[1, 0, 0, 1, 1, 1, 1], 
[1, 1, 1, 1, 1, 1, 1], 
[1, 1, 1, 1, 1, 1, 1], 
[1, 1, 1, 1, 1, 1, 1], 
[1, 1, 1, 1, 1, 1, 1], 
[1, 1, 1, 1, 1, 1, 1]], 
[[0, 0, 1, 1, 1, 1, 1], 
[1, 1, 1, 1, 1, 1, 1], 
[1, 1, 1, 1, 1, 1, 1], 
[1, 1, 1, 1, 1, 1, 1], 
[1, 1, 1, 1, 1, 1, 1], 
[1, 1, 1, 1, 1, 1, 1], 
[1, 1, 1, 1, 1, 1, 1]], 
[[0, 1, 1, 1, 1, 1, 1], 
[1, 1, 1, 1, 1, 1, 1], 
[1, 1, 1, 1, 1, 1, 1], 
[1, 1, 1, 1, 1, 1, 1], 
[1, 1, 1, 1, 1, 1, 1], 
[1, 1, 1, 1, 1, 1, 1], 
[1, 1, 1, 1, 1, 1, 1]], 
[[1, 1, 1, 1, 1, 1, 1], 
[1, 1, 1, 1, 1, 1, 1], 
[1, 1, 1, 1, 1, 1, 1], 
[1, 1, 1, 1, 1, 1, 1], 
[1, 1, 1, 1, 1, 1, 1], 
[1, 1, 1, 1, 1, 1, 1], 
[1, 1, 1, 1, 1, 1, 1]], 
[[1, 1, 1, 1, 1, 1, 1], 
[1, 1, 1, 1, 1, 1, 1], 
[1, 1, 1, 1, 1, 1, 1], 
[1, 1, 1, 1, 1, 1, 1], 
[1, 1, 1, 1, 1, 1, 1], 
[1, 1, 1, 1, 1, 1, 1], 
[1, 1, 1, 1, 1, 1, 1]], 
[[1, 1, 1, 1, 1, 1, 1], 
[1, 1, 1, 1, 1, 1, 1], 
[1, 1, 1, 1, 1, 1, 1], 
[1, 1, 1, 1, 1, 1, 1], 
[1, 1, 1, 1, 1, 1, 1], 
[1, 1, 1, 1, 1, 1, 1], 
[1, 1, 1, 1, 1, 1, 1]], 
[[1, 1, 1, 1, 1, 1, 1], 
[1, 1, 1, 1, 1, 1, 1], 
[1, 1, 1, 1, 1, 1, 1], 
[1, 1, 1, 1, 1, 1, 1], 
[1, 1, 1, 1, 1, 1, 1], 
[1, 1, 1, 1, 1, 1, 1], 
[1, 1, 1, 1, 1, 1, 1]], 
[[1, 1, 1, 1, 1, 1, 1], 
[1, 1, 1, 1, 1, 1, 1], 
[1, 1, 1, 1, 1, 1, 1], 
[1, 1, 1, 1, 1, 1, 1], 
[1, 1, 1, 1, 1, 1, 1], 
[1, 1, 1, 1, 1, 1, 1], 
[1, 1, 1, 1, 1, 1, 1]], 
[[1, 1, 1, 1, 1, 1, 1], 
[1, 1, 1, 1, 1, 1, 1], 
[1, 1, 1, 1, 1, 1, 1], 
[1, 1, 1, 1, 1, 1, 1], 
[1, 1, 1, 1, 1, 1, 1], 
[1, 1, 1, 1, 1, 1, 1], 
[1, 1, 1, 1, 1, 1, 1]], 
[[1, 1, 1, 1, 1, 1, 1], 
[1, 1, 1, 1, 1, 1, 1], 
[1, 1, 1, 1, 1, 1, 1], 
[1, 1, 1, 1, 1, 1, 1], 
[1, 1, 1, 1, 1, 1, 1], 
[1, 1, 1, 1, 1, 1, 1], 
[1, 1, 1, 1, 1, 1, 1]], 
[[1, 1, 1, 1, 1, 1, 1], 
[1, 1, 1, 1, 1, 1, 1], 
[1, 1, 1, 1, 1, 1, 1], 
[1, 1, 1, 1, 1, 1, 1], 
[1, 1, 1, 1, 1, 1, 1], 
[1, 1, 1, 1, 1, 1, 1], 
[1, 1, 1, 1, 1, 1, 1]], 
[[1, 1, 1, 1, 1, 1, 1], 
[1, 1, 1, 1, 1, 1, 1], 
[1, 1, 1, 1, 1, 1, 1], 
[1, 1, 1, 1, 1, 1, 1], 
[1, 1, 1, 1, 1, 1, 1], 
[1, 1, 1, 1, 1, 1, 1], 
[1, 1, 1, 1, 1, 1, 1]], 
[[1, 1, 1, 1, 1, 1, 1], 
[1, 1, 1, 1, 1, 1, 1], 
[1, 1, 1, 1, 1, 1, 1], 
[1, 1, 1, 1, 1, 1, 1], 
[1, 1, 1, 1, 1, 1, 1], 
[1, 1, 1, 1, 1, 1, 1], 
[1, 1, 1, 1, 1, 1, 1]], 
[[1, 1, 1, 1, 1, 1, 1], 
[1, 1, 1, 1, 1, 1, 1], 
[1, 1, 1, 1, 1, 1, 1], 
[1, 1, 1, 1, 1, 1, 1], 
[1, 1, 1, 1, 1, 1, 1], 
[1, 1, 1, 1, 1, 1, 1], 
[1, 1, 1, 1, 1, 1, 1]], 
[[1, 1, 1, 1, 1, 1, 1], 
[1, 1, 1, 1, 1, 1, 1], 
[1, 1, 1, 1, 1, 1, 1], 
[1, 1, 1, 1, 1, 1, 1], 
[1, 1, 1, 1, 1, 1, 1], 
[1, 1, 1, 1, 1, 1, 1], 
[1, 1, 1, 1, 1, 1, 1]], 
[[1, 1, 1, 1, 1, 1, 1], 
[1, 1, 1, 1, 1, 1, 1], 
[1, 1, 1, 1, 1, 1, 1], 
[1, 1, 1, 1, 1, 1, 1], 
[1, 1, 1, 1, 1, 1, 1], 
[1, 1, 1, 1, 1, 1, 1], 
[1, 1, 1, 1, 1, 1, 1]], 
[[1, 1, 1, 1, 1, 1, 1], 
[1, 1, 1, 1, 1, 1, 1], 
[1, 1, 1, 1, 1, 1, 1], 
[1, 1, 1, 1, 1, 1, 1], 
[1, 1, 1, 1, 1, 1, 1], 
[1, 1, 1, 1, 1, 1, 1], 
[1, 1, 1, 1, 1, 1, 1]], 
[[1, 1, 1, 1, 1, 1, 1], 
[1, 1, 1, 1, 1, 1, 1], 
[1, 1, 1, 1, 1, 1, 1], 
[1, 1, 1, 1, 1, 1, 1], 
[1, 1, 1, 1, 1, 1, 1], 
[1, 1, 1, 1, 1, 1, 1], 
[1, 1, 1, 1, 1, 1, 1]], 
[[1, 1, 1, 1, 1, 1, 1], 
[1, 1, 1, 1, 1, 1, 1], 
[1, 1, 1, 1, 1, 1, 1], 
[1, 1, 1, 1, 1, 1, 1], 
[1, 1, 1, 1, 1, 1, 1], 
[1, 1, 1, 1, 1, 1, 1], 
[1, 1, 1, 1, 1, 1, 1]], 
[[1, 1, 1, 1, 1, 1, 1], 
[1, 1, 1, 1, 1, 1, 1], 
[1, 1, 1, 1, 1, 1, 1], 
[1, 1, 1, 1, 1, 1, 1], 
[1, 1, 1, 1, 1, 1, 1], 
[1, 1, 1, 1, 1, 1, 1], 
[1, 1, 1, 1, 1, 1, 1]], 
[[1, 1, 1, 1, 1, 1, 1], 
[1, 1, 1, 1, 1, 1, 1], 
[1, 1, 1, 1, 1, 1, 1], 
[1, 1, 1, 1, 1, 1, 1], 
[1, 1, 1, 1, 1, 1, 1], 
[1, 1, 1, 1, 1, 1, 1], 
[1, 1, 1, 1, 1, 1, 1]], 
[[1, 1, 1, 1, 1, 1, 1], 
[1, 1, 1, 1, 1, 1, 1], 
[1, 1, 1, 1, 1, 1, 1], 
[1, 1, 1, 1, 1, 1, 1], 
[1, 1, 1, 1, 1, 1, 1], 
[1, 1, 1, 1, 1, 1, 1], 
[1, 1, 1, 1, 1, 1, 1]], 
[[1, 1, 1, 1, 1, 1, 1], 
[1, 1, 1, 1, 1, 1, 1], 
[1, 1, 1, 1, 1, 1, 1], 
[1, 1, 1, 1, 1, 1, 1], 
[1, 1, 1, 1, 1, 1, 1], 
[1, 1, 1, 1, 1, 1, 1], 
[1, 1, 1, 1, 1, 1, 1]], 
[[1, 1, 1, 1, 1, 1, 1], 
[1, 1, 1, 1, 1, 1, 1], 
[1, 1, 1, 1, 1, 1, 1], 
[1, 1, 1, 1, 1, 1, 1], 
[1, 1, 1, 1, 1, 1, 1], 
[1, 1, 1, 1, 1, 1, 1], 
[1, 1, 1, 1, 1, 1, 1]], 
[[1, 1, 1, 1, 1, 1, 1], 
[1, 1, 1, 1, 1, 1, 1], 
[1, 1, 1, 1, 1, 1, 1], 
[1, 1, 1, 1, 1, 1, 1], 
[1, 1, 1, 1, 1, 1, 1], 
[1, 1, 1, 1, 1, 1, 1], 
[1, 1, 1, 1, 1, 1, 1]];int(0..41)]
letting turningPoints be [[7, 1], 
[3, 1], 
[3, 2], 
[6, 2], 
[6, 3], 
[7, 3], 
[7, 7], 
[1, 7], 
[1, 5], 
[3, 5], 
[3, 6], 
[6, 6], 
[6, 5], 
[5, 5], 
[5, 3], 
[4, 3], 
[4, 4], 
[2, 4], 
[2, 2], 
[1, 2], 
[1, 1], 
[0, 0], 
[0, 0], 
[0, 0], 
[0, 0], 
[0, 0], 
[0, 0], 
[0, 0], 
[0, 0], 
[0, 0], 
[0, 0], 
[0, 0], 
[0, 0], 
[0, 0], 
[0, 0], 
[0, 0], 
[0, 0], 
[0, 0], 
[0, 0], 
[0, 0], 
[0, 0], 
[0, 0];int(0..41)]
